
Gurobi 10.0.3 (linux64, gurobi_cl) logging started Thu Nov  9 12:54:15 2023

Set parameter Username
Set parameter TimeLimit to value 3600
Set parameter LogFile to value "RCPSP_1418.log"
Set parameter Threads to value 32
Academic license - for non-commercial use only - expires 2024-10-30
Using license file /home/jrivera6/gurobi-licenses/v1003/compute-0-38/gurobi.lic

Gurobi Optimizer version 10.0.3 build v10.0.3rc0 (linux64)
Copyright (c) 2023, Gurobi Optimization, LLC

Read MPS format model from file RCPSP_1418.mps
Reading time = 0.06 seconds
RCPSP_1418: 42975 rows, 17020 columns, 159179 nonzeros

CPU model: Intel(R) Xeon(R) Gold 6242 CPU @ 2.80GHz, instruction set [SSE2|AVX|AVX2|AVX512]
Thread count: 32 physical cores, 32 logical processors, using up to 32 threads

Optimize a model with 42975 rows, 17020 columns and 159179 nonzeros
Model fingerprint: 0xf152ace5
Variable types: 92 continuous, 16928 integer (16928 binary)
Coefficient statistics:
  Matrix range     [1e+00, 5e+02]
  Objective range  [1e+00, 1e+00]
  Bounds range     [1e+00, 1e+00]
  RHS range        [1e+00, 5e+02]
Presolve removed 8115 rows and 2144 columns
Presolve time: 4.56s
Presolved: 34860 rows, 14876 columns, 135592 nonzeros
Variable types: 91 continuous, 14785 integer (14785 binary)

Deterministic concurrent LP optimizer: primal and dual simplex (primal and dual model)
Showing first log only...

Root relaxation presolved: 34860 rows, 14876 columns, 135592 nonzeros


Root simplex log...

Iteration    Objective       Primal Inf.    Dual Inf.      Time
       0    8.7974309e+01   1.349646e-01   2.344629e+08      6s
    1822    8.7000000e+01   0.000000e+00   0.000000e+00      6s
Concurrent spin time: 0.72s

Solved with dual simplex (dual model)

Root relaxation: objective 8.700000e+01, 17551 iterations, 1.83 seconds (0.14 work units)

    Nodes    |    Current Node    |     Objective Bounds      |     Work
 Expl Unexpl |  Obj  Depth IntInf | Incumbent    BestBd   Gap | It/Node Time

     0     0   87.00000    0  171          -   87.00000      -     -   10s
     0     0   87.00000    0  979          -   87.00000      -     -   24s
     0     0   87.00000    0  977          -   87.00000      -     -   24s
     0     0   87.00000    0  887          -   87.00000      -     -   24s
     0     0   87.00000    0  241          -   87.00000      -     -   36s
     0     0   87.00000    0  669          -   87.00000      -     -   39s
     0     0   87.00000    0  699          -   87.00000      -     -   39s
     0     0   87.00000    0  103          -   87.00000      -     -   49s
     0     0   87.00000    0  243          -   87.00000      -     -   52s
     0     0   87.00000    0   70          -   87.00000      -     -   60s
     0     0   87.00000    0   85          -   87.00000      -     -   61s
     0     0   87.00000    0   67          -   87.00000      -     -   67s
     0     0   87.00000    0  291          -   87.00000      -     -   68s
     0     0   87.00000    0  290          -   87.00000      -     -   68s
     0     0   87.00000    0  288          -   87.00000      -     -   68s
     0     0   87.00000    0  116          -   87.00000      -     -   74s
     0     0   87.00000    0  114          -   87.00000      -     -   74s
     0     0   87.00000    0  489          -   87.00000      -     -   80s
     0     0   87.00000    0  106          -   87.00000      -     -   89s
H    0     0                     491.0000000   87.00000  82.3%     -   90s
     0     0   87.00000    0  106  491.00000   87.00000  82.3%     -   92s
H    0     0                     219.0000000   87.00000  60.3%     -  102s
     0     2   87.00000    0   91  219.00000   87.00000  60.3%     -  114s
     1     4   87.00000    1   93  219.00000   87.00000  60.3%  1211  125s
     3     8   87.00000    2  147  219.00000   87.00000  60.3%   678  138s
     7    12   87.00000    3  167  219.00000   87.00000  60.3%   707  151s
    15    18   87.00000    4  234  219.00000   87.00000  60.3%   696  166s
    27    27   87.00000    5  209  219.00000   87.00000  60.3%   669  180s
    45    37   87.00000    6  212  219.00000   87.00000  60.3%   507  193s
H   72    52                     182.0000000   87.00000  52.2%   447  275s
H   73    52                     180.0000000   87.00000  51.7%   460  275s
H   74    52                     178.0000000   87.00000  51.1%   473  275s
H   77    52                     176.0000000   87.00000  50.6%   485  275s
H   79    52                     173.0000000   87.00000  49.7%   477  275s
H   81    52                     171.0000000   87.00000  49.1%   476  275s
   104    76   87.00000    8  435  171.00000   87.00000  49.1%   513  498s
H  105    76                     162.0000000   87.00000  46.3%   508  498s
H  107    76                     154.0000000   87.00000  43.5%   515  498s
H  117    76                     153.0000000   87.00000  43.1%   501  498s
H  123    76                     147.0000000   87.00000  40.8%   493  498s
   136   101   87.00000    9  429  147.00000   87.00000  40.8%   480  573s
   168   147   87.00000   10   72  147.00000   87.00000  40.8%   426  593s
   224   193   87.00000   11   72  147.00000   87.00000  40.8%   397  604s
   278   236   87.00000   13   76  147.00000   87.00000  40.8%   328  615s
   330   290   87.00000   15   77  147.00000   87.00000  40.8%   283  624s
   389   344   87.00000   17   78  147.00000   87.00000  40.8%   251  632s
   449   403   87.00000   20  155  147.00000   87.00000  40.8%   238  649s
   516   467   87.00000   21  156  147.00000   87.00000  40.8%   222  666s
   596   542   87.00000   24  154  147.00000   87.00000  40.8%   207  674s
   685   634   87.00000   25  156  147.00000   87.00000  40.8%   184  684s
   794   735   87.00000   28  144  147.00000   87.00000  40.8%   163  695s
   913   945   87.00000   32  422  147.00000   87.00000  40.8%   145  714s
  1160  1115   87.00000   34  408  147.00000   87.00000  40.8%   126  733s
H 1163  1115                     146.0000000   87.00000  40.4%   126  733s
  1374  1417   87.00000   35  428  146.00000   87.00000  40.4%   117  758s
  1709  1732   87.00000   36  473  146.00000   87.00000  40.4%   114  781s
  2061  2211   87.00000   38  417  146.00000   87.00000  40.4%   109  806s
  2617  2798   87.00000   41  211  146.00000   87.00000  40.4%  98.7  833s
H 3153  2788                     145.0000000   87.00000  40.0%  88.8  833s
  3270  3289   87.00000   44  238  145.00000   87.00000  40.0%  87.7  857s
H 3913  3288                     144.0000000   87.00000  39.6%  80.9  873s
  3914  3289  103.00000  111  106  144.00000   87.00000  39.6%  80.8  911s
  3916  3290  100.00000  103  175  144.00000   87.00000  39.6%  80.8  919s
H 3916  3125                     143.0000000   87.00000  39.2%  80.8  925s
  3917  3126  106.00000  124  245  143.00000   87.00000  39.2%  80.8  930s
H 3917  2970                     139.0000000   87.00000  37.4%  80.8  930s
H 3918  2822                     138.0000000   87.00000  37.0%  80.7  942s
H 3918  2681                     135.0000000   87.00000  35.6%  80.7  950s
H 3919  2547                     134.0000000   87.00000  35.1%  80.7  952s
H 3920  2420                     128.0000000   87.00000  32.0%  80.7  959s
  3921  2421   87.00000   12  196  128.00000   87.00000  32.0%  80.7  965s
H 3921  2300                     127.0000000   87.00000  31.5%  80.7  966s
H 3921  2185                     126.0000000   87.00000  31.0%  80.7  966s
H 3921  2075                     125.0000000   87.00000  30.4%  80.7  969s
H 3922  1972                     124.0000000   87.00000  29.8%  80.7  981s
  3924  1974  119.00000   11  361  124.00000   87.00000  29.8%  80.6  985s
  3925  1974   87.00000   24  169  124.00000   87.00000  29.8%  80.6 1013s
H 3925  1875                     121.0000000   87.00000  28.1%  80.6 1019s
H 3925  1781                     120.0000000   87.00000  27.5%  80.6 1019s
  3926  1782  101.00000   67  465  120.00000   87.00000  27.5%  80.6 1023s
H 3926  1692                     119.0000000   87.00000  26.9%  80.6 1040s
H 3928  1608                     116.0000000   87.00000  25.0%  80.5 1054s
H 3928  1528                     114.0000000   87.00000  23.7%  80.5 1054s
H 3928  1451                     113.0000000   87.00000  23.0%  80.5 1054s
  3929  1452  113.00000   19  231  113.00000   87.00000  23.0%  80.5 1059s
H 3929  1379                     107.0000000   87.00000  18.7%  80.5 1061s
H 3930  1311                     106.0000000   87.00000  17.9%  80.5 1074s
  3931  1311   93.00000   90  154  106.00000   87.00000  17.9%  80.5 1077s
  3933  1313  100.00000   25  147  106.00000   87.00000  17.9%  80.4 1085s
  3934  1316   87.00000   15  143  106.00000   87.00000  17.9%   105 1102s
  3936  1320   87.00000   16  145  106.00000   87.00000  17.9%   105 1114s
  3940  1326   87.00000   17  143  106.00000   87.00000  17.9%   105 1127s
  3948  1339   87.00000   18  157  106.00000   87.00000  17.9%   105 1141s
H 3964  1298                     105.0000000   87.00000  17.1%   106 1174s
H 3969  1234                     104.0000000   87.00000  16.3%   106 1174s
  3995  1253   87.00000   20  181  104.00000   87.00000  16.3%   106 1191s
  4028  1272   87.00000   21  179  104.00000   87.00000  16.3%   106 1210s
  4060  1292   87.00000   21  358  104.00000   87.00000  16.3%   106 1231s
  4092  1312   87.00000   22  217  104.00000   87.00000  16.3%   106 1250s
H 4124  1272                     103.0000000   87.00000  15.5%   105 1590s
H 4127  1214                     101.0000000   87.00000  13.9%   105 1590s
  4156  1219   90.00000   23  147  101.00000   87.00000  13.9%   106 1616s
H 4168  1161                      96.0000000   87.00000  9.37%   106 1616s
  4198  1149   92.00000   23  234   96.00000   87.00000  9.37%   106 1635s
H 4250  1090                      96.0000000   87.00000  9.37%   106 2016s
H 4260  1039                      95.0000000   87.00000  8.42%   106 2016s
H 4277   987                      94.0000000   87.00000  7.45%   106 2016s
  4292   987   90.00000   24  144   94.00000   87.00000  7.45%   106 2185s
  4343  1033   93.00000   25  137   94.00000   87.00000  7.45%   106 2210s
  4427  1078   93.00000   26  154   94.00000   87.00000  7.45%   106 2234s
  4517  1003   92.00000   27  106   94.00000   87.00000  7.45%   105 2251s
  4520  1005   93.00000   23  138   94.00000   87.00000  7.45%   105 2258s
  4521  1006   93.00000   36  299   94.00000   87.00000  7.45%   105 2260s
H 4521   955                      93.0000000   87.00000  6.45%   105 2267s
  4524   957   87.00000   28  104   93.00000   87.00000  6.45%   105 2273s
  4525   957   88.00000   24  218   93.00000   87.00000  6.45%   105 2275s
  4526   958   91.00000   27  141   93.00000   87.00000  6.45%   105 2280s
  4528   959   88.00000   27  134   93.00000   87.00000  6.45%   105 2293s
  4529   960   92.00000   27  246   93.00000   87.00000  6.45%   105 2297s
  4530   961   93.00000   28  137   93.00000   87.00000  6.45%   105 2306s
  4531   961   87.00000   34  340   93.00000   87.00000  6.45%   105 2310s
  4532   962   90.00000   26  165   93.00000   87.00000  6.45%   105 2319s
  4533   963   89.00000   25  325   93.00000   87.00000  6.45%   105 2323s
  4534   963   93.00000   23   83   93.00000   87.00000  6.45%   105 2335s
  4536   965   91.00000   27  147   93.00000   87.00000  6.45%   105 2343s
  4538   966   90.00000   23  111   93.00000   87.00000  6.45%   105 2346s
  4539   970   87.00000   30  105   93.00000   87.00000  6.45%   120 2364s
  4541   973   87.00000   31  150   93.00000   87.00000  6.45%   120 2369s
  4545   980   87.00000   32  154   93.00000   87.00000  6.45%   120 2376s
  4553   990   87.00000   33  154   93.00000   87.00000  6.45%   121 2382s
  4569  1012   87.00000   34  135   93.00000   87.00000  6.45%   120 2392s
H 4582   958                      93.0000000   87.00000  6.45%   120 2392s
  4598   983   87.00000   35  286   93.00000   87.00000  6.45%   120 2402s
  4630  1003   88.00000   36  260   93.00000   87.00000  6.45%   120 2895s
H 4638   955                      92.0000000   87.00000  5.43%   120 2912s
H 4654   905                      91.0000000   87.00000  4.40%   120 2912s
  4662   925   88.00000   36  262   91.00000   87.00000  4.40%   120 3007s
  4694   938   88.00000   37  263   91.00000   87.00000  4.40%   120 3020s
  4726   971   88.00000   37  239   91.00000   87.00000  4.40%   120 3043s
  4781  1007   88.00000   38  235   91.00000   87.00000  4.40%   122 3059s
  4838  1031   88.00000   39  321   91.00000   87.00000  4.40%   122 3074s
  4892  1155   89.00000   40  265   91.00000   87.00000  4.40%   123 3099s
  5058  1277   88.00000   42  271   91.00000   87.00000  4.40%   122 3121s
  5278  1418   89.00000   46  320   91.00000   87.00000  4.40%   120 3148s
  5539  1652   88.00000   49  272   91.00000   87.00000  4.40%   117 3370s
  5944  1708   89.00000   54  251   91.00000   87.00000  4.40%   115 3647s

Cutting planes:
  Gomory: 25
  Cover: 58
  Implied bound: 105
  Projected implied bound: 3
  Clique: 228
  MIR: 40
  StrongCG: 3
  Flow cover: 265
  Zero half: 4
  RLT: 43
  Relax-and-lift: 240

Explored 6199 nodes (777860 simplex iterations) in 3725.81 seconds (218.22 work units)
Thread count was 32 (of 32 available processors)

Solution count 10: 91 92 93 ... 103

Time limit reached
Best objective 9.100000000000e+01, best bound 8.700000000000e+01, gap 4.3956%

Wrote result file 'RCPSP_1418.sol'

